Results/Experiment 2 Results/New Benchmark/output_p1_0.00_p2_0.00_n_40_00.lp
clingo version 5.4.0
Reading from tempSRTISolver.lp ...
Solving...
Answer: 1
matched(6,2) matched(1,3) matched(8,4) matched(7,5) matched(2,6) matched(5,7) matched(4,8) matched(9,10) matched(12,11) matched(11,12) matched(10,9) matched(13,14) matched(20,15) matched(19,16) matched(18,17) matched(17,18) matched(16,19) matched(15,20) matched(14,13) matched(26,22) matched(21,23) matched(28,24) matched(27,25) matched(22,26) matched(25,27) matched(24,28) matched(23,21) matched(31,30) matched(30,31) matched(29,32) matched(32,29) matched(40,34) matched(38,35) matched(33,36) matched(39,37) matched(35,38) matched(37,39) matched(34,40) matched(36,33) matched(3,1)
Optimization: 357
Answer: 2
matched(6,2) matched(1,3) matched(8,4) matched(7,5) matched(2,6) matched(5,7) matched(4,8) matched(11,10) matched(10,11) matched(9,12) matched(12,9) matched(13,14) matched(20,15) matched(19,16) matched(18,17) matched(17,18) matched(16,19) matched(15,20) matched(14,13) matched(26,22) matched(21,23) matched(28,24) matched(27,25) matched(22,26) matched(25,27) matched(24,28) matched(23,21) matched(31,30) matched(30,31) matched(29,32) matched(32,29) matched(40,34) matched(38,35) matched(33,36) matched(39,37) matched(35,38) matched(37,39) matched(34,40) matched(36,33) matched(3,1)
Optimization: 353
Answer: 3
matched(6,2) matched(1,3) matched(8,4) matched(7,5) matched(2,6) matched(5,7) matched(4,8) matched(9,10) matched(12,11) matched(11,12) matched(10,9) matched(13,14) matched(18,15) matched(19,16) matched(20,17) matched(15,18) matched(16,19) matched(17,20) matched(14,13) matched(26,22) matched(21,23) matched(28,24) matched(27,25) matched(22,26) matched(25,27) matched(24,28) matched(23,21) matched(29,30) matched(32,31) matched(31,32) matched(30,29) matched(40,34) matched(38,35) matched(33,36) matched(39,37) matched(35,38) matched(37,39) matched(34,40) matched(36,33) matched(3,1)
Optimization: 351
Answer: 4
matched(6,2) matched(1,3) matched(8,4) matched(7,5) matched(2,6) matched(5,7) matched(4,8) matched(11,10) matched(10,11) matched(9,12) matched(12,9) matched(13,14) matched(18,15) matched(19,16) matched(20,17) matched(15,18) matched(16,19) matched(17,20) matched(14,13) matched(26,22) matched(21,23) matched(28,24) matched(27,25) matched(22,26) matched(25,27) matched(24,28) matched(23,21) matched(29,30) matched(32,31) matched(31,32) matched(30,29) matched(40,34) matched(38,35) matched(33,36) matched(39,37) matched(35,38) matched(37,39) matched(34,40) matched(36,33) matched(3,1)
Optimization: 347
Answer: 5
matched(1,2) matched(6,3) matched(7,4) matched(8,5) matched(3,6) matched(4,7) matched(5,8) matched(11,10) matched(10,11) matched(9,12) matched(12,9) matched(20,14) matched(18,15) matched(13,16) matched(19,17) matched(15,18) matched(17,19) matched(14,20) matched(16,13) matched(27,22) matched(26,23) matched(21,24) matched(28,25) matched(23,26) matched(22,27) matched(25,28) matched(24,21) matched(29,30) matched(32,31) matched(31,32) matched(30,29) matched(40,34) matched(38,35) matched(33,36) matched(39,37) matched(35,38) matched(37,39) matched(34,40) matched(36,33) matched(2,1)
Optimization: 346
Answer: 6
matched(1,2) matched(6,3) matched(7,4) matched(8,5) matched(3,6) matched(4,7) matched(5,8) matched(11,10) matched(10,11) matched(9,12) matched(12,9) matched(20,14) matched(18,15) matched(13,16) matched(19,17) matched(15,18) matched(17,19) matched(14,20) matched(16,13) matched(27,22) matched(26,23) matched(21,24) matched(28,25) matched(23,26) matched(22,27) matched(25,28) matched(24,21) matched(29,30) matched(32,31) matched(31,32) matched(30,29) matched(33,34) matched(38,35) matched(39,36) matched(40,37) matched(35,38) matched(36,39) matched(37,40) matched(34,33) matched(2,1)
Optimization: 345
Answer: 7
matched(7,2) matched(6,3) matched(1,4) matched(8,5) matched(3,6) matched(2,7) matched(5,8) matched(11,10) matched(10,11) matched(9,12) matched(12,9) matched(13,14) matched(18,15) matched(19,16) matched(20,17) matched(15,18) matched(16,19) matched(17,20) matched(14,13) matched(26,22) matched(21,23) matched(28,24) matched(27,25) matched(22,26) matched(25,27) matched(24,28) matched(23,21) matched(29,30) matched(32,31) matched(31,32) matched(30,29) matched(33,34) matched(38,35) matched(39,36) matched(40,37) matched(35,38) matched(36,39) matched(37,40) matched(34,33) matched(4,1)
Optimization: 344
Answer: 8
matched(7,2) matched(6,3) matched(1,4) matched(8,5) matched(3,6) matched(2,7) matched(5,8) matched(11,10) matched(10,11) matched(9,12) matched(12,9) matched(13,14) matched(20,15) matched(19,16) matched(18,17) matched(17,18) matched(16,19) matched(15,20) matched(14,13) matched(27,22) matched(26,23) matched(21,24) matched(28,25) matched(23,26) matched(22,27) matched(25,28) matched(24,21) matched(29,30) matched(32,31) matched(31,32) matched(30,29) matched(33,34) matched(38,35) matched(39,36) matched(40,37) matched(35,38) matched(36,39) matched(37,40) matched(34,33) matched(4,1)
Optimization: 342
Answer: 9
matched(7,2) matched(6,3) matched(1,4) matched(8,5) matched(3,6) matched(2,7) matched(5,8) matched(11,10) matched(10,11) matched(9,12) matched(12,9) matched(13,14) matched(18,15) matched(19,16) matched(20,17) matched(15,18) matched(16,19) matched(17,20) matched(14,13) matched(27,22) matched(26,23) matched(21,24) matched(28,25) matched(23,26) matched(22,27) matched(25,28) matched(24,21) matched(29,30) matched(32,31) matched(31,32) matched(30,29) matched(33,34) matched(38,35) matched(39,36) matched(40,37) matched(35,38) matched(36,39) matched(37,40) matched(34,33) matched(4,1)
Optimization: 341
OPTIMUM FOUND

Models       : 9
  Optimum    : yes
Optimization : 341
Calls        : 1
Time         : 2.136s (Solving: 0.35s 1st Model: 0.00s Unsat: 0.03s)
CPU Time     : 2.111s
